NAME : tsp_141_sol.txt
COMMENT : OR-Tools Guided Local Search
TYPE : TOUR
DIMENSION : 50
COST : 5747
STATUS : ROUTING_SUCCESS
GAP : 0.00% (Reference Solution)
TOUR_SECTION
1
12
17
7
25
22
19
48
30
49
10
43
37
34
31
3
42
2
16
28
24
23
26
46
18
41
4
40
9
21
29
36
6
20
15
50
14
32
5
33
13
27
35
45
39
38
8
47
44
11
-1
